95 76 79 3 60 100 
42 15 94 37 91 
63 62 18 6 48 58 
45 82 85 68 25 
28 21 40 56 74 80 
14 98 44 57 97 89 
29 51 34 70 
33 12 22 26 4 
59 5 83 49 93 
92 69 7 96 17 
36 64 90 20 32 77 
47 88 10 13 
65 71 81 54 24 
39 75 53 50 
27 52 99 84 
31 87 1 
72 2 73 41 55 
23 35 
11 19 46 
16 86 43 
30 9 66 
8 
38 
67 
78 
61 

